results/x-long/X-n157-k13.vrp_seed-5.vrp.sol
Route #1: 47 5 153 76 136 112 89 81 119 2 57 88
Route #2: 151 113 82 11 77 45 83 90 51 100 91 129
Route #3: 49 14 120 26 128 142 62 97 87 65 103 16
Route #4: 92 137 7 28 66 94 86 132 111 102 96 59
Route #5: 101 27 44 124 130 104 127 145 46 19 116 37
Route #6: 38 122 69 99 93 36 68 20 75 118 147 15
Route #7: 148 13 63 64 141 43 24 156 150 8 149 71
Route #8: 131 133 50 154 98 123 53 144 85 140 31 23
Route #9: 126 1 117 9 108 40 80 146 78 125 139 70
Route #10: 17 67 4 35 6 115 55 95 105 152 56 61
Route #11: 12 60 109 114 29 58 39 10 134 52 107 18
Route #12: 34 138 25 155 22 30 74 79 84 33 48 72
Route #13: 143 32 42 3 106 73 135 21 121 54 110 41
Cost 16876.000000